CPXPARAM_MIP_Cuts_MIRCut#P20#0#7.441034#1.000000
CPXPARAM_MIP_Cuts_MIRCut#P20#1#3.787748#0.509035
CPXPARAM_MIP_Cuts_MIRCut#P20#2#2.764967#0.371584
CPXPARAM_MIP_Strategy_NodeSelect#P39#1#3.576929#0.480703
CPXPARAM_MIP_Strategy_NodeSelect#P39#2#5.034905#0.676640
CPXPARAM_MIP_Strategy_NodeSelect#P39#3#1.470806#0.197662
